NAME : portcgen-26-2
COMMENT : portcgen N=26, seed=2
TYPE : TSP
DIMENSION : 26
EDGE_WEIGHT_TYPE : EUC_2D
NODE_COORD_SECTION
1 290174 81541
2 495444 132115
3 -28511 -49535
4 -204051 -118212
5 -103507 -135033
6 235457 -283726
7 204600 156759
8 -373171 -87851
9 262795 -64374
10 -70736 219104
11 66570 29663
12 188183 317945
13 -172864 156050
14 -24230 -200296
15 25343 -35726
16 25143 -8218
17 -77159 166040
18 75795 -318220
19 440454 -69605
20 -233514 216638
21 -178972 -176948
22 191726 249070
23 79092 17792
24 -207977 212547
25 93565 -38560
26 151159 229585
